proyfinal/src/viki/013/experimentInOfficeAgust.take6.output/07f76d4f-3eb6-4bf0-9e0f-0727aedb3007.als.out
Reading from standard input... Use '--help' for help.
============================[ Problem Statistics ]=============================
|                                                                             |
|  Number of variables:         87638                                         |
|  Number of clauses:          161767                                         |
|  Parse time:                   0.04 s                                       |
|                                                                             |
============================[ Search Statistics ]==============================
| Conflicts |          ORIGINAL         |          LEARNT          | Progress |
|           |    Vars  Clauses Literals |    Limit  Clauses Lit/Cl |          |
===============================================================================
|       100 |   65317   115796   288839 |    42458      100     11 | 25.470 % |
|       250 |   65317   115796   288839 |    46704      250     30 | 25.470 % |
|       475 |   65299   115722   288668 |    51374      474     45 | 25.490 % |
|       812 |   65299   115722   288668 |    56512      811     58 | 25.490 % |
|      1318 |   65299   115722   288668 |    62163     1317     53 | 25.490 % |
|      2077 |   65299   115722   288668 |    68379     2076     53 | 25.490 % |
|      3216 |   65299   115722   288668 |    75217     3215     83 | 25.490 % |
|      4924 |   65277   115630   288457 |    82739     4922     98 | 25.515 % |
|      7486 |   65276   115586   288367 |    91013     7480    112 | 25.516 % |
|     11330 |   58275    92969   232766 |   100115    10859    118 | 33.505 % |
|     17096 |   57725    91002   227887 |   110126    16499    117 | 34.132 % |
===============================================================================
restarts              : 64
conflicts             : 19331          (6701 /sec)
decisions             : 86057          (0.00 % random) (29829 /sec)
propagations          : 29689546       (10291072 /sec)
conflict literals     : 2202966        (34.43 % deleted)
Memory used           : 40.04 MB
CPU time              : 2.88498 s

INDETERMINATE
